language ESSENCE' 1.0

letting jobs = 102
letting horizon = 825
letting resourcesRenew = 2
letting resourcesNonrenew = 2
letting resourceLimits = [47, 51, 476, 491]
letting successors = [[2, 3, 4, 5, 6, 7, 8, 9, 10, 11, 12, 13, 15, 16, 17, 19, 25, 27, 38], [56, 52, 51, 45, 44, 43, 36, 34, 32, 31, 30, 26, 23, 22, 20], [56, 52, 47, 44, 43, 42, 36, 30, 29, 26, 23, 18], [56, 54, 52, 45, 44, 42, 40, 34, 30, 28, 24, 22, 21], [45, 44, 42, 39, 31, 21, 14], [67, 59, 52, 51, 47, 43, 40, 36, 35, 33, 32, 31, 30], [59, 52, 45, 42, 40, 36, 35, 34, 33, 32, 31], [67, 62, 59, 58, 54, 52, 48, 47, 40, 36, 35, 33, 30], [58, 56, 55, 54, 48, 45, 44, 43, 42, 35, 30, 28], [56, 54, 52, 51, 48, 41, 40, 39, 35, 34, 33], [67, 60, 59, 55, 51, 46, 43, 42, 32, 31, 26], [79, 67, 63, 60, 59, 58, 55, 54, 52, 48, 46, 35], [67, 63, 62, 60, 59, 56, 54, 51, 46, 42, 36], [62, 60, 59, 56, 51, 46, 36, 35, 30], [67, 64, 62, 60, 58, 55, 46, 44, 35, 30], [62, 59, 58, 54, 48, 46, 36, 30], [79, 59, 58, 55, 54, 51, 50, 48, 46, 37, 32], [67, 60, 58, 57, 51, 49, 48, 45, 40], [67, 64, 62, 58, 57, 49, 45, 40, 37], [67, 63, 60, 59, 57, 55, 49, 42, 40], [75, 67, 63, 62, 60, 59, 46, 36], [79, 71, 67, 65, 64, 60, 55, 48, 35], [79, 78, 72, 67, 65, 63, 59, 35], [101, 79, 72, 67, 64, 63, 59, 50, 48, 46], [101, 78, 76, 72, 67, 66, 60, 59, 57, 40], [101, 83, 79, 72, 68, 65, 64, 63, 62, 53, 50, 49], [101, 78, 67, 65, 63, 60, 54, 52, 49], [101, 72, 68, 67, 66, 64, 63, 59, 57, 46], [101, 66, 59, 57, 48, 46], [101, 83, 79, 72, 68, 66, 65, 63, 57, 53, 50], [83, 71, 65, 63, 57, 54, 48], [101, 83, 78, 76, 74, 72, 68, 66, 65, 64, 62, 53], [101, 83, 79, 78, 75, 71, 66, 61, 60, 50], [101, 67, 65, 64, 58, 57, 53, 49], [101, 83, 68, 57, 53, 50, 49], [78, 71, 66, 64, 57, 55, 50], [101, 100, 83, 78, 77, 75, 72, 71, 68, 66, 53], [101, 100, 83, 78, 76, 75, 72, 71, 68, 66, 53], [101, 100, 83, 78, 77, 76, 75, 63, 60, 53], [79, 75, 68, 46], [101, 83, 75, 73, 72, 71, 61, 50], [100, 79, 78, 77, 75, 71, 68, 66, 53], [101, 83, 73, 72, 66, 61, 50], [100, 79, 78, 75, 74, 68, 65, 53], [101, 96, 83, 78, 73, 72, 50], [100, 83, 77, 74, 71, 65, 53], [98, 95, 76, 75, 70, 68, 65, 64, 63], [100, 78, 75, 74, 68, 53], [99, 98, 76, 75, 74, 73, 69, 66, 61], [100, 99, 98, 97, 95, 94, 93, 90, 89, 82, 77, 76, 74, 70, 69], [100, 99, 98, 97, 95, 93, 89, 83, 82, 81, 80, 77, 75, 73, 70], [99, 98, 95, 93, 82, 77, 75, 72, 69, 64], [99, 98, 97, 94, 81, 73, 69, 61], [100, 99, 98, 88, 76, 70, 69, 66], [101, 100, 98, 97, 93, 89, 83, 81, 74, 72, 70, 69], [100, 99, 98, 97, 93, 92, 90, 89, 73, 71, 69], [99, 98, 97, 96, 93, 92, 90, 88, 86, 81, 69], [100, 97, 95, 94, 93, 91, 90, 89, 88, 87, 82, 81, 80], [100, 99, 98, 97, 93, 92, 91, 89, 84, 80, 71], [97, 96, 81, 70, 69, 68], [96, 95, 93, 91, 90, 89, 87, 82, 80, 70], [100, 98, 97, 96, 89, 71, 69], [99, 97, 94, 92, 90, 89, 87, 86, 85, 82], [100, 96, 92, 91, 89, 88, 86, 81, 80], [99, 89, 73, 69], [97, 93, 90, 89, 87, 86, 82, 80], [92, 90, 89, 88, 87, 86, 84, 80], [93, 91, 90, 87, 86, 84, 80], [91, 87, 84, 80], [92, 86, 85, 84], [88, 87, 86, 85], [87, 86, 85, 84], [88, 87, 86], [88, 87, 84], [96, 90, 85], [86, 81], [88, 84], [85, 84], [90, 89], [85], [84], [84], [84], [102], [102], [102], [102], [102], [102], [102], [102], [102], [102], [102], [102], [102], [102], [102], [102], [102], [102], []]
letting durations = [[0], [4, 6, 10], [1, 2, 9], [4, 5, 6], [6, 7, 10], [8, 9, 10], [3, 8, 10], [5, 6, 9], [2, 3, 7], [4, 6, 9], [1, 5, 6], [1, 7, 8], [6, 7, 8], [4, 6, 10], [2, 5, 8], [3, 9, 10], [3, 5, 7], [4, 9, 10], [4, 7, 8], [1, 3, 4], [2, 3, 4], [1, 5, 9], [5, 6, 7], [2, 7, 8], [4, 8, 10], [4, 7, 8], [8, 9, 10], [1, 4, 8], [2, 4, 9], [1, 2, 9], [1, 8, 10], [1, 8, 10], [2, 4, 5], [4, 6, 10], [1, 3, 8], [5, 9, 10], [5, 6, 10], [4, 5, 9], [2, 5, 7], [2, 5, 9], [1, 5, 9], [4, 9, 10], [2, 8, 9], [5, 8, 10], [1, 8, 9], [8, 9, 10], [1, 7, 9], [3, 5, 8], [1, 8, 9], [1, 5, 7], [1, 5, 6], [4, 9, 10], [3, 9, 10], [2, 3, 6], [2, 3, 4], [2, 4, 10], [1, 7, 8], [2, 3, 5], [1, 7, 10], [1, 2, 7], [1, 2, 9], [2, 7, 10], [2, 4, 9], [3, 5, 6], [2, 7, 8], [1, 7, 9], [7, 9, 10], [4, 6, 7], [1, 2, 8], [1, 7, 10], [2, 3, 6], [2, 6, 10], [4, 6, 8], [4, 9, 10], [2, 6, 9], [1, 5, 9], [1, 3, 7], [5, 6, 7], [2, 3, 4], [1, 8, 10], [3, 6, 8], [5, 8, 10], [1, 3, 10], [1, 3, 7], [4, 7, 8], [2, 4, 7], [2, 5, 8], [5, 9, 10], [4, 7, 9], [2, 6, 7], [6, 7, 9], [1, 5, 7], [5, 6, 7], [2, 9, 10], [3, 4, 8], [1, 2, 6], [3, 7, 9], [8, 9, 10], [2, 3, 4], [2, 3, 5], [1, 4, 5], [0]]
letting resourceUsage = [[[0, 0, 0, 0]], [[3, 2, 8, 10], [1, 1, 7, 8], [1, 1, 7, 7]], [[5, 5, 7, 7], [5, 2, 5, 6], [5, 1, 2, 5]], [[1, 4, 5, 10], [1, 3, 5, 5], [1, 2, 4, 5]], [[4, 4, 9, 8], [4, 3, 9, 6], [4, 1, 9, 6]], [[1, 3, 6, 9], [1, 2, 4, 8], [1, 2, 4, 5]], [[3, 2, 7, 5], [3, 1, 5, 4], [3, 1, 3, 1]], [[4, 5, 10, 5], [4, 5, 8, 3], [4, 5, 7, 3]], [[5, 2, 5, 3], [5, 2, 4, 3], [5, 1, 4, 2]], [[2, 2, 8, 8], [2, 2, 7, 6], [2, 2, 7, 5]], [[4, 5, 3, 10], [3, 5, 3, 9], [1, 5, 3, 7]], [[4, 4, 5, 7], [3, 3, 4, 3], [2, 3, 4, 3]], [[3, 4, 4, 9], [3, 4, 4, 6], [3, 4, 3, 6]], [[4, 5, 4, 4], [4, 4, 2, 3], [4, 4, 1, 1]], [[5, 1, 8, 8], [4, 1, 6, 5], [3, 1, 6, 2]], [[4, 4, 3, 10], [2, 2, 2, 9], [1, 2, 2, 9]], [[2, 3, 7, 6], [2, 3, 6, 5], [2, 2, 4, 4]], [[4, 5, 7, 5], [4, 5, 7, 4], [4, 5, 6, 3]], [[5, 4, 7, 7], [3, 3, 5, 7], [1, 1, 5, 7]], [[5, 5, 5, 5], [4, 4, 3, 5], [4, 4, 2, 3]], [[3, 2, 8, 7], [3, 1, 8, 5], [3, 1, 6, 4]], [[2, 5, 7, 5], [2, 4, 4, 3], [2, 4, 2, 3]], [[4, 4, 7, 6], [2, 3, 7, 4], [2, 1, 4, 3]], [[3, 4, 4, 5], [3, 3, 4, 4], [3, 2, 4, 4]], [[4, 4, 4, 2], [3, 2, 4, 2], [3, 2, 4, 1]], [[3, 5, 8, 10], [2, 5, 8, 7], [2, 5, 8, 6]], [[1, 5, 9, 7], [1, 3, 8, 5], [1, 3, 8, 2]], [[1, 5, 9, 6], [1, 2, 4, 4], [1, 1, 1, 1]], [[1, 4, 8, 9], [1, 4, 4, 8], [1, 4, 4, 7]], [[5, 1, 6, 10], [3, 1, 6, 9], [2, 1, 6, 8]], [[3, 3, 10, 7], [3, 1, 10, 3], [2, 1, 10, 2]], [[3, 3, 2, 9], [3, 1, 1, 9], [2, 1, 1, 9]], [[4, 2, 3, 4], [4, 1, 2, 3], [3, 1, 2, 2]], [[5, 1, 9, 7], [4, 1, 9, 5], [4, 1, 9, 1]], [[2, 3, 6, 9], [2, 3, 6, 8], [2, 3, 1, 9]], [[3, 3, 9, 10], [3, 3, 7, 6], [3, 1, 6, 3]], [[3, 2, 9, 7], [3, 2, 9, 6], [2, 2, 9, 4]], [[2, 4, 6, 6], [1, 3, 6, 4], [1, 1, 6, 3]], [[3, 3, 8, 8], [3, 2, 5, 6], [2, 2, 3, 4]], [[3, 5, 2, 6], [2, 3, 1, 5], [2, 3, 1, 3]], [[1, 2, 9, 6], [1, 1, 8, 5], [1, 1, 7, 5]], [[4, 3, 5, 8], [4, 3, 4, 8], [4, 3, 2, 6]], [[3, 3, 6, 7], [2, 3, 5, 4], [1, 3, 4, 1]], [[4, 2, 5, 8], [4, 2, 3, 4], [4, 2, 2, 1]], [[3, 3, 6, 8], [2, 3, 4, 7], [1, 2, 3, 5]], [[3, 4, 8, 10], [3, 4, 7, 8], [3, 4, 4, 8]], [[4, 3, 5, 5], [2, 3, 3, 4], [1, 3, 3, 2]], [[2, 5, 5, 10], [1, 4, 5, 9], [1, 4, 5, 7]], [[2, 4, 3, 5], [1, 3, 3, 3], [1, 1, 2, 3]], [[4, 1, 6, 6], [3, 1, 6, 6], [2, 1, 5, 6]], [[3, 2, 6, 6], [3, 2, 5, 4], [3, 2, 4, 1]], [[2, 3, 5, 5], [2, 3, 3, 4], [2, 3, 3, 3]], [[5, 4, 7, 6], [4, 3, 5, 4], [4, 3, 3, 3]], [[1, 5, 6, 9], [1, 4, 6, 8], [1, 4, 5, 7]], [[4, 4, 10, 7], [4, 4, 7, 4], [4, 4, 6, 3]], [[3, 3, 3, 9], [3, 3, 3, 8], [3, 3, 3, 7]], [[3, 2, 6, 5], [2, 2, 6, 5], [1, 2, 6, 5]], [[3, 3, 8, 5], [3, 1, 8, 4], [3, 1, 4, 4]], [[5, 2, 5, 9], [4, 1, 3, 8], [3, 1, 2, 6]], [[4, 4, 5, 8], [4, 3, 4, 5], [4, 2, 3, 3]], [[5, 4, 8, 8], [3, 2, 7, 8], [2, 2, 7, 8]], [[5, 2, 9, 5], [4, 2, 8, 4], [3, 2, 8, 1]], [[2, 4, 3, 7], [1, 4, 2, 6], [1, 3, 2, 6]], [[4, 4, 8, 6], [4, 3, 6, 6], [2, 2, 4, 6]], [[3, 3, 4, 9], [2, 3, 4, 6], [1, 3, 3, 5]], [[3, 4, 2, 10], [2, 4, 2, 10], [2, 4, 1, 10]], [[2, 3, 4, 5], [1, 1, 3, 4], [1, 1, 2, 3]], [[2, 3, 9, 5], [2, 3, 9, 4], [2, 1, 8, 3]], [[2, 3, 6, 9], [2, 2, 5, 7], [2, 2, 1, 7]], [[4, 3, 2, 4], [3, 3, 2, 4], [2, 1, 2, 4]], [[2, 3, 3, 5], [1, 2, 3, 2], [1, 1, 1, 1]], [[5, 1, 8, 9], [3, 1, 5, 6], [2, 1, 3, 5]], [[5, 4, 8, 6], [4, 3, 7, 6], [3, 2, 5, 6]], [[5, 3, 9, 4], [5, 2, 7, 3], [5, 2, 5, 3]], [[2, 3, 8, 3], [2, 3, 7, 3], [2, 2, 7, 1]], [[4, 5, 9, 2], [3, 4, 6, 1], [3, 4, 4, 1]], [[3, 5, 3, 6], [2, 5, 3, 4], [2, 5, 2, 3]], [[1, 2, 4, 8], [1, 1, 3, 8], [1, 1, 3, 7]], [[3, 2, 9, 5], [3, 1, 8, 4], [3, 1, 8, 3]], [[2, 3, 4, 4], [2, 3, 4, 2], [2, 2, 4, 2]], [[5, 4, 6, 7], [5, 4, 4, 7], [5, 4, 3, 7]], [[5, 4, 6, 7], [4, 2, 5, 5], [3, 2, 5, 2]], [[1, 4, 9, 5], [1, 4, 7, 5], [1, 4, 5, 3]], [[2, 3, 6, 7], [2, 1, 4, 7], [2, 1, 2, 6]], [[3, 3, 4, 9], [3, 2, 3, 7], [2, 2, 3, 4]], [[3, 4, 6, 6], [2, 3, 6, 5], [2, 2, 6, 1]], [[2, 3, 8, 7], [2, 2, 7, 5], [2, 1, 7, 4]], [[5, 4, 5, 9], [5, 3, 4, 9], [5, 2, 2, 9]], [[4, 2, 8, 10], [4, 1, 6, 9], [4, 1, 6, 8]], [[3, 4, 7, 7], [3, 3, 6, 6], [1, 3, 6, 6]], [[4, 2, 9, 4], [2, 2, 4, 4], [2, 2, 4, 3]], [[4, 4, 9, 7], [3, 3, 7, 6], [3, 1, 5, 6]], [[5, 5, 10, 7], [5, 3, 7, 5], [5, 3, 5, 1]], [[2, 4, 10, 4], [2, 4, 6, 4], [2, 3, 5, 1]], [[4, 4, 5, 8], [3, 3, 4, 8], [2, 2, 4, 8]], [[2, 2, 3, 7], [1, 2, 3, 7], [1, 2, 3, 5]], [[4, 3, 1, 10], [4, 3, 1, 4], [4, 3, 1, 1]], [[3, 5, 7, 9], [3, 4, 7, 4], [3, 2, 5, 2]], [[3, 3, 6, 10], [1, 2, 3, 8], [1, 1, 1, 8]], [[4, 5, 7, 4], [2, 4, 6, 3], [1, 4, 4, 3]], [[5, 3, 9, 4], [4, 3, 9, 3], [3, 3, 9, 2]], [[0, 0, 0, 0]]]
